37.43 0
0 1 2 4 6 9 11 10 8 7 3 5 75 0
0 12 14 16 19 18 17 13 15 0
0 20 21 22 23 26 28 30 29 27 25 24 0
0 31 32 33 34 36 39 38 37 35 0
0 40 41 42 43 47 49 52 50 51 48 45 46 44 0
0 53 54 55 57 59 60 58 56 0
0 61 64 68 69 66 67 65 63 62 74 72 0
0 70 71 76 78 81 80 79 77 73 0
0 82 83 86 87 90 91 89 88 85 84 0
0 92 93 97 100 99 98 96 95 94 0
